/* Seervada Park (mynd 9.6 bls. 389 H&L). */

data; 

param n := 7;
param s := 1;
param t := 7;

/* O,A,B,C,D,E,T == (1,2,3,4,5,6,7) */
param : E :   c :=
       1 2    2
       1 4    4
       1 3    5
       2 3    2
       3 4    1
       2 5    7
       3 5    4
       3 6    3
       4 6    4
       5 6    1
       5 7    5
       6 7    7;
end;